p wcnf 113 170 171 
1 85 -112 0 
1 25 8 0 
1 -66 -41 0 
1 55 43 0 
1 100 113 0 
1 86 -27 0 
1 41 44 0 
1 -77 3 0 
1 49 77 0 
1 -57 30 0 
1 -80 -106 0 
1 44 -111 0 
1 -109 64 0 
1 2 -40 0 
1 -27 -46 0 
1 30 -48 0 
1 -100 65 0 
1 -24 -72 0 
1 -54 -32 0 
1 33 -15 0 
1 29 94 0 
1 -88 2 0 
1 -59 105 0 
1 -111 59 0 
1 -78 -106 0 
1 22 -41 0 
1 88 -10 0 
1 71 -84 0 
1 -104 39 0 
1 37 31 0 
1 -102 -56 0 
1 94 -18 0 
1 89 10 0 
1 101 -104 0 
1 -24 -17 0 
1 -13 78 0 
1 -57 -92 0 
1 -94 -103 0 
1 -25 86 0 
1 -14 -90 0 
1 -29 -64 0 
1 45 83 0 
1 35 -104 0 
1 22 75 0 
1 11 -29 0 
1 -22 15 0 
1 -82 -29 0 
1 95 47 0 
1 -87 -64 0 
1 77 -70 0 
1 87 -31 0 
1 -23 -66 0 
1 71 6 0 
1 38 65 0 
1 94 -26 0 
1 -68 -73 0 
1 -77 43 0 
1 3 -75 0 
1 -24 -11 0 
1 -88 32 0 
1 53 -76 0 
1 56 -53 0 
1 78 99 0 
1 9 94 0 
1 52 -49 0 
1 73 100 0 
1 -89 3 0 
1 -107 42 0 
1 -56 75 0 
1 61 4 0 
1 38 39 0 
1 71 -7 0 
1 73 87 0 
1 -76 26 0 
1 83 -101 0 
1 -64 -101 0 
1 1 -2 0 
1 110 -18 0 
1 106 39 0 
1 -90 -84 0 
1 -93 71 0 
1 19 90 0 
1 8 94 0 
1 -77 12 0 
1 -61 98 0 
1 10 68 0 
1 18 40 0 
1 -91 68 0 
1 -79 89 0 
1 17 34 0 
1 -70 81 0 
1 -5 4 0 
1 48 15 0 
1 5 6 0 
1 91 57 0 
1 -82 -79 0 
1 13 -32 0 
1 -65 39 0 
1 -83 10 0 
1 -92 80 0 
1 45 33 0 
1 76 37 0 
1 17 -4 0 
1 106 -103 0 
1 -47 11 0 
1 44 -101 0 
1 90 -107 0 
1 74 -80 0 
1 -53 104 0 
1 -69 16 0 
1 46 -102 0 
1 -18 16 0 
1 -1 84 0 
1 -85 28 0 
1 -99 -14 0 
1 -4 38 0 
1 -48 36 0 
1 9 -41 0 
1 -31 40 0 
1 -57 103 0 
1 -67 50 0 
1 20 -47 0 
1 111 52 0 
1 82 -41 0 
1 -1 57 0 
1 -6 -102 0 
1 -30 4 0 
1 22 99 0 
1 -64 88 0 
1 104 62 0 
1 28 49 0 
1 73 -104 0 
1 78 -15 0 
1 50 -66 0 
1 37 69 0 
1 -4 -32 0 
1 22 -76 0 
1 -73 -86 0 
1 -6 -66 0 
1 -78 -92 0 
1 30 -58 0 
1 30 -107 0 
1 -105 -87 0 
1 17 -2 0 
1 48 -8 0 
1 14 -100 0 
1 -3 73 0 
1 -103 -39 0 
1 30 11 0 
1 22 -81 0 
1 -112 -35 0 
1 103 -62 0 
1 -46 -48 0 
1 -37 1 0 
1 -68 -30 0 
1 101 -65 0 
1 -112 17 0 
1 -81 -112 0 
1 86 32 0 
1 -43 6 0 
1 -59 7 0 
1 -76 60 0 
1 80 -21 0 
1 -99 80 0 
1 -105 -86 0 
1 -94 58 0 
1 -58 39 0 
1 56 6 0 
1 35 89 0 
1 4 101 0 
